NAME: eil101.heu.tour
TYPE: TOUR
COMMENT: Heuristic tour (Lin-Kernighan), length 642.03
DIMENSION: 101
TOUR_SECTION
1
50
76
77
3
79
78
34
81
33
51
9
35
71
65
66
20
30
70
31
88
7
82
48
19
11
62
10
32
90
63
64
49
36
47
46
8
45
17
84
5
60
83
18
52
89
6
94
13
87
97
95
92
59
96
99
93
98
37
100
91
85
61
16
86
38
44
14
42
43
15
57
2
73
21
72
74
22
41
75
56
23
67
39
25
55
4
54
24
29
68
80
12
26
40
58
53
101
28
27
69
-1
EOF
